; Options: -in -smt2
(set-option :produce-unsat-assumptions true)

(declare-fun start!2931 () Bool)

(assert start!2931)

(declare-fun b_free!29 () Bool)

(declare-fun b_next!29 () Bool)

(assert (=> start!2931 (= b_free!29 (not b_next!29))))

(declare-fun tp!44 () Bool)

(declare-fun b_and!159 () Bool)

(assert (=> start!2931 (= tp!44 b_and!159)))

(declare-fun b!16076 () Bool)

(declare-fun res!12673 () Bool)

(declare-fun e!9041 () Bool)

(assert (=> b!16076 (=> (not res!12673) (not e!9041))))

(declare-fun P!6 () Int)

(declare-datatypes ((array!1365 0))(
  ( (array!1366 (arr!601 (Array (_ BitVec 32) (_ BitVec 32))) (size!601 (_ BitVec 32))) )
))
(declare-fun a!13 () array!1365)

(declare-fun dynLambda!52 (Int (_ BitVec 32)) Bool)

(assert (=> b!16076 (= res!12673 (dynLambda!52 P!6 (select (arr!601 a!13) #b00000000000000000000000000000100)))))

(declare-fun b!16077 () Bool)

(declare-fun res!12665 () Bool)

(assert (=> b!16077 (=> (not res!12665) (not e!9041))))

(assert (=> b!16077 (= res!12665 (dynLambda!52 P!6 (select (arr!601 a!13) #b00000000000000000000000000000000)))))

(declare-fun b!16078 () Bool)

(declare-fun res!12675 () Bool)

(assert (=> b!16078 (=> (not res!12675) (not e!9041))))

(assert (=> b!16078 (= res!12675 (dynLambda!52 P!6 (select (arr!601 a!13) #b00000000000000000000000000000011)))))

(declare-fun b!16079 () Bool)

(declare-fun res!12667 () Bool)

(assert (=> b!16079 (=> (not res!12667) (not e!9041))))

(assert (=> b!16079 (= res!12667 (dynLambda!52 P!6 (select (arr!601 a!13) #b00000000000000000000000000001001)))))

(declare-fun b!16080 () Bool)

(declare-fun res!12672 () Bool)

(assert (=> b!16080 (=> (not res!12672) (not e!9041))))

(assert (=> b!16080 (= res!12672 (dynLambda!52 P!6 (select (arr!601 a!13) #b00000000000000000000000000000101)))))

(declare-fun b!16081 () Bool)

(assert (=> b!16081 (= e!9041 (bvsge #b00000000000000000000000000001011 (size!601 a!13)))))

(declare-fun b!16082 () Bool)

(declare-fun res!12674 () Bool)

(assert (=> b!16082 (=> (not res!12674) (not e!9041))))

(assert (=> b!16082 (= res!12674 (dynLambda!52 P!6 (select (arr!601 a!13) #b00000000000000000000000000000111)))))

(declare-fun b!16083 () Bool)

(declare-fun res!12670 () Bool)

(assert (=> b!16083 (=> (not res!12670) (not e!9041))))

(assert (=> b!16083 (= res!12670 (dynLambda!52 P!6 (select (arr!601 a!13) #b00000000000000000000000000000010)))))

(declare-fun res!12668 () Bool)

(assert (=> start!2931 (=> (not res!12668) (not e!9041))))

(assert (=> start!2931 (= res!12668 (= (size!601 a!13) #b00000000000000000000000000010100))))

(assert (=> start!2931 e!9041))

(declare-fun array_inv!549 (array!1365) Bool)

(assert (=> start!2931 (array_inv!549 a!13)))

(assert (=> start!2931 tp!44))

(declare-fun b!16084 () Bool)

(declare-fun res!12669 () Bool)

(assert (=> b!16084 (=> (not res!12669) (not e!9041))))

(assert (=> b!16084 (= res!12669 (dynLambda!52 P!6 (select (arr!601 a!13) #b00000000000000000000000000001010)))))

(declare-fun b!16085 () Bool)

(declare-fun res!12671 () Bool)

(assert (=> b!16085 (=> (not res!12671) (not e!9041))))

(assert (=> b!16085 (= res!12671 (dynLambda!52 P!6 (select (arr!601 a!13) #b00000000000000000000000000000110)))))

(declare-fun b!16086 () Bool)

(declare-fun res!12666 () Bool)

(assert (=> b!16086 (=> (not res!12666) (not e!9041))))

(assert (=> b!16086 (= res!12666 (dynLambda!52 P!6 (select (arr!601 a!13) #b00000000000000000000000000000001)))))

(declare-fun b!16087 () Bool)

(declare-fun res!12664 () Bool)

(assert (=> b!16087 (=> (not res!12664) (not e!9041))))

(assert (=> b!16087 (= res!12664 (dynLambda!52 P!6 (select (arr!601 a!13) #b00000000000000000000000000001000)))))

(assert (= (and start!2931 res!12668) b!16077))

(assert (= (and b!16077 res!12665) b!16086))

(assert (= (and b!16086 res!12666) b!16083))

(assert (= (and b!16083 res!12670) b!16078))

(assert (= (and b!16078 res!12675) b!16076))

(assert (= (and b!16076 res!12673) b!16080))

(assert (= (and b!16080 res!12672) b!16085))

(assert (= (and b!16085 res!12671) b!16082))

(assert (= (and b!16082 res!12674) b!16087))

(assert (= (and b!16087 res!12664) b!16079))

(assert (= (and b!16079 res!12667) b!16084))

(assert (= (and b!16084 res!12669) b!16081))

(declare-fun b_lambda!5431 () Bool)

(assert (=> (not b_lambda!5431) (not b!16086)))

(declare-fun t!321 () Bool)

(declare-fun tb!131 () Bool)

(assert (=> (and start!2931 (= P!6 P!6) t!321) tb!131))

(declare-fun result!131 () Bool)

(assert (=> tb!131 (= result!131 true)))

(assert (=> b!16086 t!321))

(declare-fun b_and!161 () Bool)

(assert (= b_and!159 (and (=> t!321 result!131) b_and!161)))

(declare-fun b_lambda!5433 () Bool)

(assert (=> (not b_lambda!5433) (not b!16080)))

(declare-fun t!323 () Bool)

(declare-fun tb!133 () Bool)

(assert (=> (and start!2931 (= P!6 P!6) t!323) tb!133))

(declare-fun result!133 () Bool)

(assert (=> tb!133 (= result!133 true)))

(assert (=> b!16080 t!323))

(declare-fun b_and!163 () Bool)

(assert (= b_and!161 (and (=> t!323 result!133) b_and!163)))

(declare-fun b_lambda!5435 () Bool)

(assert (=> (not b_lambda!5435) (not b!16082)))

(declare-fun t!325 () Bool)

(declare-fun tb!135 () Bool)

(assert (=> (and start!2931 (= P!6 P!6) t!325) tb!135))

(declare-fun result!135 () Bool)

(assert (=> tb!135 (= result!135 true)))

(assert (=> b!16082 t!325))

(declare-fun b_and!165 () Bool)

(assert (= b_and!163 (and (=> t!325 result!135) b_and!165)))

(declare-fun b_lambda!5437 () Bool)

(assert (=> (not b_lambda!5437) (not b!16077)))

(declare-fun t!327 () Bool)

(declare-fun tb!137 () Bool)

(assert (=> (and start!2931 (= P!6 P!6) t!327) tb!137))

(declare-fun result!137 () Bool)

(assert (=> tb!137 (= result!137 true)))

(assert (=> b!16077 t!327))

(declare-fun b_and!167 () Bool)

(assert (= b_and!165 (and (=> t!327 result!137) b_and!167)))

(declare-fun b_lambda!5439 () Bool)

(assert (=> (not b_lambda!5439) (not b!16087)))

(declare-fun t!329 () Bool)

(declare-fun tb!139 () Bool)

(assert (=> (and start!2931 (= P!6 P!6) t!329) tb!139))

(declare-fun result!139 () Bool)

(assert (=> tb!139 (= result!139 true)))

(assert (=> b!16087 t!329))

(declare-fun b_and!169 () Bool)

(assert (= b_and!167 (and (=> t!329 result!139) b_and!169)))

(declare-fun b_lambda!5441 () Bool)

(assert (=> (not b_lambda!5441) (not b!16078)))

(declare-fun t!331 () Bool)

(declare-fun tb!141 () Bool)

(assert (=> (and start!2931 (= P!6 P!6) t!331) tb!141))

(declare-fun result!141 () Bool)

(assert (=> tb!141 (= result!141 true)))

(assert (=> b!16078 t!331))

(declare-fun b_and!171 () Bool)

(assert (= b_and!169 (and (=> t!331 result!141) b_and!171)))

(declare-fun b_lambda!5443 () Bool)

(assert (=> (not b_lambda!5443) (not b!16085)))

(declare-fun t!333 () Bool)

(declare-fun tb!143 () Bool)

(assert (=> (and start!2931 (= P!6 P!6) t!333) tb!143))

(declare-fun result!143 () Bool)

(assert (=> tb!143 (= result!143 true)))

(assert (=> b!16085 t!333))

(declare-fun b_and!173 () Bool)

(assert (= b_and!171 (and (=> t!333 result!143) b_and!173)))

(declare-fun b_lambda!5445 () Bool)

(assert (=> (not b_lambda!5445) (not b!16084)))

(declare-fun t!335 () Bool)

(declare-fun tb!145 () Bool)

(assert (=> (and start!2931 (= P!6 P!6) t!335) tb!145))

(declare-fun result!145 () Bool)

(assert (=> tb!145 (= result!145 true)))

(assert (=> b!16084 t!335))

(declare-fun b_and!175 () Bool)

(assert (= b_and!173 (and (=> t!335 result!145) b_and!175)))

(declare-fun b_lambda!5447 () Bool)

(assert (=> (not b_lambda!5447) (not b!16083)))

(declare-fun t!337 () Bool)

(declare-fun tb!147 () Bool)

(assert (=> (and start!2931 (= P!6 P!6) t!337) tb!147))

(declare-fun result!147 () Bool)

(assert (=> tb!147 (= result!147 true)))

(assert (=> b!16083 t!337))

(declare-fun b_and!177 () Bool)

(assert (= b_and!175 (and (=> t!337 result!147) b_and!177)))

(declare-fun b_lambda!5449 () Bool)

(assert (=> (not b_lambda!5449) (not b!16076)))

(declare-fun t!339 () Bool)

(declare-fun tb!149 () Bool)

(assert (=> (and start!2931 (= P!6 P!6) t!339) tb!149))

(declare-fun result!149 () Bool)

(assert (=> tb!149 (= result!149 true)))

(assert (=> b!16076 t!339))

(declare-fun b_and!179 () Bool)

(assert (= b_and!177 (and (=> t!339 result!149) b_and!179)))

(declare-fun b_lambda!5451 () Bool)

(assert (=> (not b_lambda!5451) (not b!16079)))

(declare-fun t!341 () Bool)

(declare-fun tb!151 () Bool)

(assert (=> (and start!2931 (= P!6 P!6) t!341) tb!151))

(declare-fun result!151 () Bool)

(assert (=> tb!151 (= result!151 true)))

(assert (=> b!16079 t!341))

(declare-fun b_and!181 () Bool)

(assert (= b_and!179 (and (=> t!341 result!151) b_and!181)))

(declare-fun m!22437 () Bool)

(assert (=> start!2931 m!22437))

(declare-fun m!22439 () Bool)

(assert (=> b!16076 m!22439))

(assert (=> b!16076 m!22439))

(declare-fun m!22441 () Bool)

(assert (=> b!16076 m!22441))

(declare-fun m!22443 () Bool)

(assert (=> b!16085 m!22443))

(assert (=> b!16085 m!22443))

(declare-fun m!22445 () Bool)

(assert (=> b!16085 m!22445))

(declare-fun m!22447 () Bool)

(assert (=> b!16082 m!22447))

(assert (=> b!16082 m!22447))

(declare-fun m!22449 () Bool)

(assert (=> b!16082 m!22449))

(declare-fun m!22451 () Bool)

(assert (=> b!16078 m!22451))

(assert (=> b!16078 m!22451))

(declare-fun m!22453 () Bool)

(assert (=> b!16078 m!22453))

(declare-fun m!22455 () Bool)

(assert (=> b!16087 m!22455))

(assert (=> b!16087 m!22455))

(declare-fun m!22457 () Bool)

(assert (=> b!16087 m!22457))

(declare-fun m!22459 () Bool)

(assert (=> b!16077 m!22459))

(assert (=> b!16077 m!22459))

(declare-fun m!22461 () Bool)

(assert (=> b!16077 m!22461))

(declare-fun m!22463 () Bool)

(assert (=> b!16083 m!22463))

(assert (=> b!16083 m!22463))

(declare-fun m!22465 () Bool)

(assert (=> b!16083 m!22465))

(declare-fun m!22467 () Bool)

(assert (=> b!16084 m!22467))

(assert (=> b!16084 m!22467))

(declare-fun m!22469 () Bool)

(assert (=> b!16084 m!22469))

(declare-fun m!22471 () Bool)

(assert (=> b!16079 m!22471))

(assert (=> b!16079 m!22471))

(declare-fun m!22473 () Bool)

(assert (=> b!16079 m!22473))

(declare-fun m!22475 () Bool)

(assert (=> b!16080 m!22475))

(assert (=> b!16080 m!22475))

(declare-fun m!22477 () Bool)

(assert (=> b!16080 m!22477))

(declare-fun m!22479 () Bool)

(assert (=> b!16086 m!22479))

(assert (=> b!16086 m!22479))

(declare-fun m!22481 () Bool)

(assert (=> b!16086 m!22481))

(check-sat (not b_lambda!5451) (not b_lambda!5445) (not b_lambda!5437) (not b_lambda!5435) (not start!2931) (not b_lambda!5441) (not b_lambda!5449) (not b_lambda!5439) (not b_lambda!5433) (not b_next!29) b_and!181 (not b_lambda!5443) (not b_lambda!5447) (not b_lambda!5431))
(check-sat b_and!181 (not b_next!29))
